job_count = 30 ;
duration = [|8, 9|10, 2|17, 5|10, 2|16, 1|19, 5|11, 7|19, 5|6, 1|9, 7|5, 9|15, 4|15, 3|10, 5|11, 8|19, 6|10, 6|7, 4|9, 1|16, 1|14, 8|7, 2|15, 1|11, 3|11, 6|4, 8|12, 6|12, 2|16, 2|17, 6|] ;
machine_count = 2 ;
cost = [|10, 30|11, 39|10, 26|19, 25|10, 38|13, 26|14, 28|16, 32|13, 26|19, 39|10, 20|14, 37|16, 23|15, 31|11, 38|17, 34|11, 26|19, 23|13, 24|17, 37|19, 33|11, 20|18, 34|19, 37|18, 37|14, 29|10, 33|16, 34|12, 34|18, 35|] ;
deadline = [75, 75, 75, 75, 75, 75, 75, 75, 75, 75, 75, 75, 75, 75, 75, 75, 75, 75, 75, 75, 75, 75, 75, 75, 75, 75, 75, 75, 75, 75] ;
release = [0, 0, 0, 0, 0, 0, 0, 0, 0, 0, 0, 0, 0, 0, 0, 0, 0, 0, 0, 0, 0, 0, 0, 0, 0, 0, 0, 0, 0, 0] ;
resource = [|1, 1|2, 2|6, 6|9, 9|2, 2|9, 9|8, 8|8, 8|2, 2|7, 7|8, 8|2, 2|6, 6|7, 7|2, 2|3, 3|2, 2|1, 1|3, 3|6, 6|8, 8|9, 9|5, 5|9, 9|1, 1|2, 2|9, 9|1, 1|7, 7|9, 9|] ;
capacities = [10, 10] ;
